
Gurobi 6.5.2 (win64) logging started 07/23/16 02:49:06


Gurobi 6.5.2 (win64) logging started 07/23/16 02:49:06

Optimize a model with 17987 rows, 1329 columns and 39459 nonzeros
Coefficient statistics:
  Matrix range    [4e-06, 1e+03]
  Objective range [1e+00, 1e+00]
  Bounds range    [1e+00, 1e+00]
  RHS range       [1e+00, 1e+03]
Found heuristic solution: objective 2496.94
Presolve removed 17959 rows and 1301 columns
Presolve time: 0.01s
Presolved: 28 rows, 28 columns, 85 nonzeros
Found heuristic solution: objective 239.3238263
Variable types: 28 continuous, 0 integer (0 binary)

Root relaxation: objective 1.850171e+02, 20 iterations, 0.00 seconds

    Nodes    |    Current Node    |     Objective Bounds      |     Work
 Expl Unexpl |  Obj  Depth IntInf | Incumbent    BestBd   Gap | It/Node Time

*    0     0               0     185.0171162  185.01712  0.00%     -    0s

Explored 0 nodes (20 simplex iterations) in 0.01 seconds
Thread count was 8 (of 8 available processors)

Optimal solution found (tolerance 1.00e-04)
Best objective 1.850171161785e+02, best bound 1.850171161785e+02, gap 0.0%

Wrote requested result file 'H2\instance13\\Results13EC_Sol3.lp'

